GLPSOL: GLPK LP/MIP Solver, v4.65
Parameter(s) specified in the command line:
 --model solver_drone.mod --data solver_drone_data_30.dat --output solver_drone_solution_30_7.log
 --log solver_drone_cmd_output_30_7.log --tmlim 50
Reading model section from solver_drone.mod...
41 lines were read
Reading data section from solver_drone_data_30.dat...
99 lines were read
Generating f...
Generating package_deliverd_once...
Generating package_well_delivered...
Generating time_spent_flying...
Generating autonomy_not_exceeded...
Generating check_time_max...
Model has been successfully generated
GLPK Integer Optimizer, v4.65
12498 rows, 12377 columns, 37528 non-zeros
12377 integer variables, 12369 of which are binary
Preprocessing...
128 rows, 12377 columns, 25158 non-zeros
12377 integer variables, 12369 of which are binary
Scaling...
 A: min|aij| =  1.000e+00  max|aij| =  1.312e+03  ratio =  1.312e+03
GM: min|aij| =  4.456e-01  max|aij| =  2.244e+00  ratio =  5.037e+00
EQ: min|aij| =  1.985e-01  max|aij| =  1.000e+00  ratio =  5.037e+00
2N: min|aij| =  1.016e-01  max|aij| =  1.000e+00  ratio =  9.846e+00
Constructing initial basis...
Size of triangular part is 128
Solving LP relaxation...
GLPK Simplex Optimizer, v4.65
128 rows, 12377 columns, 25158 non-zeros
      0: obj =   0.000000000e+00 inf =   1.098e+03 (1)
    157: obj =   5.017142857e+03 inf =   1.945e-13 (0) 1
*   214: obj =   5.017142857e+03 inf =   1.118e-13 (0)
OPTIMAL LP SOLUTION FOUND
Integer optimization begins...
Long-step dual simplex will be used
+   214: mip =     not found yet >=              -inf        (1; 0)
+  4399: >>>>>   5.580000000e+03 >=   5.018000000e+03  10.1% (131; 0)
+  6277: >>>>>   5.528000000e+03 >=   5.018000000e+03   9.2% (152; 59)
+  7793: >>>>>   5.396000000e+03 >=   5.018000000e+03   7.0% (206; 80)
+  8743: >>>>>   5.352000000e+03 >=   5.018000000e+03   6.2% (217; 123)
+  9257: >>>>>   5.276000000e+03 >=   5.018000000e+03   4.9% (203; 213)
+ 11048: >>>>>   5.156000000e+03 >=   5.018000000e+03   2.7% (199; 322)
+ 12009: >>>>>   5.112000000e+03 >=   5.018000000e+03   1.8% (191; 414)
+ 12303: >>>>>   5.080000000e+03 >=   5.018000000e+03   1.2% (191; 475)
+ 13277: >>>>>   5.060000000e+03 >=   5.018000000e+03   0.8% (261; 480)
+ 13362: >>>>>   5.040000000e+03 >=   5.018000000e+03   0.4% (250; 544)
+ 13582: >>>>>   5.032000000e+03 >=   5.018000000e+03   0.3% (256; 564)
+ 20803: mip =   5.032000000e+03 >=   5.018000000e+03   0.3% (697; 644)
+ 29620: mip =   5.032000000e+03 >=   5.018000000e+03   0.3% (1198; 701)
+ 29930: >>>>>   5.028000000e+03 >=   5.018000000e+03   0.2% (1223; 705)
+ 31943: >>>>>   5.024000000e+03 >=   5.018000000e+03   0.1% (1236; 919)
+ 41804: mip =   5.024000000e+03 >=   5.018000000e+03   0.1% (1452; 1472)
+ 51956: mip =   5.024000000e+03 >=   5.018000000e+03   0.1% (1877; 1572)
+ 63422: mip =   5.024000000e+03 >=   5.018000000e+03   0.1% (2223; 1722)
+ 73459: mip =   5.024000000e+03 >=   5.018000000e+03   0.1% (2547; 1895)
+ 80252: mip =   5.024000000e+03 >=   5.018000000e+03   0.1% (2956; 2006)
+ 89608: mip =   5.024000000e+03 >=   5.018000000e+03   0.1% (3396; 2162)
+ 91331: mip =   5.024000000e+03 >=   5.018000000e+03   0.1% (3450; 2217)
TIME LIMIT EXCEEDED; SEARCH TERMINATED
Time used:   50.1 secs
Memory used: 55.6 Mb (58258304 bytes)
The package 1 is delivered by the drone 1 to the house 1
The package 2 is delivered by the drone 7 to the house 1
The package 3 is delivered by the drone 5 to the house 1
The package 4 is delivered by the drone 7 to the house 2
The package 5 is delivered by the drone 4 to the house 2
The package 6 is delivered by the drone 5 to the house 2
The package 7 is delivered by the drone 4 to the house 3
The package 8 is delivered by the drone 3 to the house 3
The package 9 is delivered by the drone 5 to the house 4
The package 10 is delivered by the drone 3 to the house 4
The package 11 is delivered by the drone 7 to the house 5
The package 12 is delivered by the drone 1 to the house 5
The package 13 is delivered by the drone 1 to the house 6
The package 14 is delivered by the drone 7 to the house 6
The package 15 is delivered by the drone 3 to the house 7
The package 16 is delivered by the drone 5 to the house 8
The package 17 is delivered by the drone 5 to the house 8
The package 18 is delivered by the drone 3 to the house 10
The package 19 is delivered by the drone 6 to the house 10
The package 20 is delivered by the drone 1 to the house 10
The package 21 is delivered by the drone 2 to the house 11
The package 22 is delivered by the drone 3 to the house 11
The package 23 is delivered by the drone 7 to the house 11
The package 24 is delivered by the drone 1 to the house 12
The package 25 is delivered by the drone 7 to the house 12
The package 26 is delivered by the drone 7 to the house 12
The package 27 is delivered by the drone 6 to the house 14
The package 28 is delivered by the drone 7 to the house 14
The package 29 is delivered by the drone 7 to the house 15
The package 30 is delivered by the drone 7 to the house 15
The package 31 is delivered by the drone 1 to the house 16
The package 32 is delivered by the drone 1 to the house 17
The package 33 is delivered by the drone 3 to the house 17
The package 34 is delivered by the drone 5 to the house 19
The package 35 is delivered by the drone 6 to the house 19
The package 36 is delivered by the drone 4 to the house 19
The package 37 is delivered by the drone 1 to the house 20
The package 38 is delivered by the drone 1 to the house 20
The package 39 is delivered by the drone 2 to the house 21
The package 40 is delivered by the drone 2 to the house 21
The package 41 is delivered by the drone 4 to the house 21
The package 42 is delivered by the drone 5 to the house 23
The package 43 is delivered by the drone 6 to the house 23
The package 44 is delivered by the drone 1 to the house 24
The package 45 is delivered by the drone 6 to the house 24
The package 46 is delivered by the drone 1 to the house 24
The package 47 is delivered by the drone 7 to the house 25
The package 48 is delivered by the drone 6 to the house 25
The package 49 is delivered by the drone 6 to the house 26
The package 50 is delivered by the drone 4 to the house 27
The package 51 is delivered by the drone 3 to the house 28
The package 52 is delivered by the drone 2 to the house 28
The package 53 is delivered by the drone 3 to the house 28
The package 54 is delivered by the drone 6 to the house 29
The package 55 is delivered by the drone 2 to the house 29
The package 56 is delivered by the drone 2 to the house 29
The package 57 is delivered by the drone 4 to the house 31
Model has been successfully processed
Writing MIP solution to 'solver_drone_solution_30_7.log'...
